SAT
-1 -100 -99 -98 84 97 -73 -14 9 -95 15 -47 -87 37 -7 64 -80 68 56 -30 12 -5 96 58 40 -77 4 -59 -94 -72 63 -28 88 -10 85 31 -71 6 93 20 -45 69 29 -89 -66 2 90 -54 -19 -46 -75 65 62 92 -41 3 51 39 -25 48 -74 -23 -16 -86 53 -36 32 -22 -76 -49 -83 -60 -61 -43 33 78 -52 -44 34 8 21 -38 17 -35 67 -82 91 79 18 57 -81 -42 -13 -70 50 26 -11 24 55 27 0
